p edge 251 733
e 1 10
e 1 17
e 1 30
e 1 31
e 1 38
e 1 45
e 1 52
e 1 85
e 1 138
e 1 139
e 1 145
e 1 157
e 1 172
e 1 176
e 1 198
e 2 9
e 2 12
e 2 40
e 2 49
e 2 66
e 2 68
e 2 104
e 2 109
e 2 112
e 2 224
e 3 4
e 3 6
e 3 7
e 3 14
e 3 16
e 3 50
e 3 62
e 3 70
e 3 71
e 3 77
e 3 86
e 3 219
e 3 227
e 4 37
e 4 71
e 4 102
e 4 122
e 4 145
e 4 157
e 5 25
e 5 35
e 5 77
e 5 112
e 5 144
e 5 148
e 6 7
e 6 10
e 6 11
e 6 14
e 6 30
e 6 43
e 6 50
e 6 52
e 6 56
e 6 65
e 6 71
e 6 86
e 6 158
e 6 166
e 6 199
e 6 212
e 7 10
e 7 14
e 7 22
e 7 52
e 7 56
e 7 62
e 7 71
e 7 80
e 7 97
e 7 115
e 7 140
e 7 201
e 8 27
e 8 43
e 8 76
e 8 78
e 8 88
e 8 111
e 8 135
e 8 184
e 8 188
e 8 236
e 8 244
e 9 11
e 9 12
e 9 34
e 9 37
e 9 75
e 9 84
e 9 109
e 9 117
e 9 120
e 9 129
e 9 136
e 9 138
e 9 177
e 10 12
e 10 13
e 10 16
e 10 40
e 10 52
e 10 61
e 10 71
e 10 94
e 10 107
e 10 120
e 10 172
e 10 174
e 10 212
e 11 43
e 11 65
e 11 86
e 11 89
e 11 120
e 11 128
e 11 166
e 12 34
e 12 38
e 12 46
e 12 57
e 12 58
e 12 63
e 12 107
e 12 109
e 12 138
e 12 174
e 13 21
e 13 40
e 13 48
e 13 60
e 13 61
e 13 100
e 13 101
e 13 120
e 13 150
e 13 154
e 14 16
e 14 47
e 14 56
e 14 185
e 14 227
e 15 70
e 15 173
e 16 38
e 16 68
e 16 94
e 16 101
e 16 125
e 16 138
e 16 227
e 17 23
e 17 28
e 17 30
e 17 38
e 17 45
e 17 51
e 17 65
e 17 66
e 17 89
e 17 118
e 17 126
e 17 191
e 17 241
e 18 22
e 18 32
e 18 34
e 18 43
e 18 46
e 18 77
e 18 86
e 18 91
e 18 185
e 18 199
e 18 223
e 19 23
e 19 26
e 19 27
e 19 41
e 19 43
e 19 49
e 19 76
e 19 87
e 19 88
e 19 163
e 19 184
e 19 225
e 19 235
e 20 21
e 20 28
e 20 34
e 20 60
e 20 69
e 20 74
e 20 79
e 20 106
e 20 116
e 20 119
e 20 142
e 21 67
e 21 79
e 21 100
e 21 106
e 21 160
e 21 232
e 22 52
e 22 67
e 22 102
e 22 123
e 22 157
e 23 24
e 23 33
e 23 41
e 23 49
e 23 82
e 23 104
e 23 184
e 23 208
e 23 241
e 24 41
e 24 49
e 24 53
e 24 55
e 24 60
e 24 74
e 24 81
e 24 132
e 24 151
e 24 192
e 24 208
e 24 251
e 25 55
e 25 64
e 25 77
e 25 80
e 25 112
e 26 27
e 26 39
e 26 54
e 26 60
e 26 75
e 26 96
e 26 136
e 26 207
e 26 226
e 27 53
e 27 76
e 27 105
e 27 111
e 27 135
e 27 236
e 27 240
e 28 45
e 28 65
e 28 89
e 28 95
e 28 106
e 28 126
e 28 136
e 28 170
e 29 51
e 29 76
e 29 99
e 29 114
e 29 121
e 29 128
e 29 135
e 29 150
e 29 163
e 29 165
e 29 167
e 29 168
e 29 179
e 30 38
e 30 45
e 30 91
e 30 144
e 30 155
e 30 176
e 30 199
e 31 138
e 31 139
e 31 170
e 31 183
e 31 202
e 31 203
e 32 35
e 32 80
e 32 94
e 32 169
e 33 35
e 33 55
e 33 82
e 33 92
e 33 190
e 33 229
e 34 57
e 34 102
e 34 116
e 34 119
e 34 138
e 34 185
e 34 223
e 35 37
e 35 70
e 35 94
e 35 139
e 35 141
e 35 148
e 35 229
e 36 58
e 36 84
e 36 103
e 36 110
e 36 116
e 36 125
e 36 137
e 36 164
e 36 194
e 36 197
e 36 202
e 36 203
e 37 44
e 37 58
e 37 109
e 37 113
e 37 120
e 38 45
e 38 68
e 38 93
e 38 101
e 38 138
e 38 176
e 39 60
e 39 75
e 39 121
e 39 152
e 39 207
e 40 61
e 40 100
e 40 120
e 40 142
e 40 153
e 40 171
e 41 49
e 41 81
e 41 103
e 41 110
e 41 132
e 41 137
e 41 151
e 41 155
e 41 162
e 41 184
e 41 192
e 42 62
e 42 67
e 42 68
e 42 175
e 42 180
e 43 76
e 43 77
e 43 87
e 43 166
e 43 235
e 44 160
e 44 164
e 44 187
e 45 65
e 45 89
e 45 126
e 45 230
e 46 58
e 46 59
e 46 73
e 46 97
e 46 212
e 47 56
e 47 83
e 47 185
e 47 219
e 48 134
e 48 150
e 48 154
e 49 53
e 49 184
e 50 140
e 50 156
e 50 159
e 50 249
e 50 250
e 51 66
e 51 99
e 51 118
e 51 128
e 51 135
e 51 144
e 51 150
e 51 179
e 51 191
e 51 211
e 52 63
e 52 71
e 52 107
e 52 212
e 53 74
e 53 246
e 53 251
e 54 55
e 54 68
e 54 92
e 54 226
e 55 64
e 55 82
e 56 185
e 57 93
e 57 116
e 58 109
e 58 113
e 58 125
e 58 202
e 58 203
e 59 73
e 59 94
e 59 97
e 59 115
e 59 212
e 60 69
e 60 75
e 60 151
e 60 207
e 61 62
e 61 120
e 61 180
e 62 68
e 62 180
e 63 107
e 63 133
e 64 105
e 64 143
e 64 152
e 64 200
e 65 89
e 65 128
e 65 158
e 66 118
e 66 154
e 66 158
e 66 191
e 66 224
e 67 122
e 67 145
e 68 101
e 68 138
e 68 180
e 69 171
e 69 187
e 70 139
e 70 141
e 71 212
e 71 219
e 72 73
e 72 77
e 72 86
e 72 90
e 72 93
e 72 134
e 72 228
e 72 231
e 73 93
e 73 97
e 73 134
e 73 188
e 73 212
e 74 209
e 74 251
e 75 127
e 75 136
e 75 177
e 75 207
e 76 87
e 76 105
e 76 111
e 76 135
e 76 235
e 76 236
e 77 86
e 77 112
e 77 231
e 78 89
e 78 126
e 78 135
e 78 161
e 78 234
e 79 182
e 79 183
e 81 108
e 81 132
e 81 173
e 81 176
e 81 192
e 82 148
e 83 182
e 83 219
e 84 116
e 84 117
e 84 129
e 84 139
e 85 119
e 85 129
e 85 141
e 85 198
e 86 91
e 86 166
e 86 199
e 86 231
e 87 147
e 87 208
e 87 235
e 88 179
e 88 184
e 88 225
e 89 126
e 89 128
e 90 95
e 90 124
e 90 127
e 90 133
e 90 146
e 90 178
e 90 196
e 90 205
e 90 206
e 91 155
e 91 199
e 92 200
e 92 215
e 92 216
e 93 101
e 93 134
e 93 228
e 94 115
e 95 96
e 95 127
e 95 136
e 95 178
e 96 104
e 96 118
e 96 121
e 96 136
e 96 191
e 96 195
e 97 115
e 97 140
e 97 169
e 97 201
e 97 212
e 97 221
e 98 111
e 98 130
e 98 210
e 99 103
e 99 108
e 99 110
e 99 128
e 99 135
e 99 150
e 99 179
e 100 153
e 100 213
e 101 138
e 101 189
e 102 122
e 102 145
e 102 157
e 103 108
e 103 110
e 103 137
e 103 151
e 103 194
e 103 197
e 103 237
e 103 238
e 106 160
e 106 170
e 107 133
e 107 174
e 108 173
e 108 192
e 109 113
e 110 137
e 110 162
e 110 194
e 110 197
e 111 135
e 111 163
e 111 167
e 111 168
e 111 236
e 113 131
e 113 149
e 113 165
e 114 121
e 114 165
e 115 140
e 115 156
e 115 186
e 115 201
e 116 119
e 117 129
e 117 222
e 118 121
e 118 191
e 118 195
e 118 197
e 119 141
e 119 153
e 119 172
e 121 191
e 121 195
e 122 145
e 122 157
e 122 217
e 122 218
e 123 124
e 123 174
e 123 193
e 124 133
e 124 146
e 124 174
e 124 196
e 125 202
e 125 203
e 125 245
e 126 155
e 126 234
e 127 178
e 128 135
e 128 150
e 128 179
e 129 198
e 129 222
e 130 161
e 130 162
e 130 210
e 131 149
e 131 165
e 131 239
e 132 137
e 132 155
e 132 192
e 132 194
e 133 146
e 133 190
e 133 196
e 135 150
e 135 179
e 135 236
e 136 177
e 137 155
e 137 194
e 137 197
e 138 139
e 139 141
e 140 159
e 140 201
e 140 220
e 141 142
e 141 214
e 142 171
e 142 214
e 143 152
e 143 178
e 145 157
e 146 186
e 146 196
e 149 165
e 150 154
e 150 179
e 153 172
e 153 213
e 156 186
e 156 201
e 156 249
e 156 250
e 159 220
e 160 164
e 160 187
e 161 162
e 163 167
e 163 168
e 164 187
e 167 168
e 167 242
e 167 243
e 168 242
e 168 243
e 169 221
e 173 192
e 175 181
e 182 183
e 183 202
e 183 203
e 185 223
e 188 244
e 189 213
e 189 217
e 189 218
e 191 195
e 194 197
e 195 197
e 196 205
e 196 206
e 200 215
e 200 216
e 202 203
e 204 214
e 204 233
e 205 206
e 213 217
e 213 218
e 214 233
e 215 216
e 217 218
e 237 238
e 242 243
e 247 248
e 249 250
